  units            metal
  boundary         p p p
  box tilt large
  read_data        __LMP_STCT__

  replicate __REPLICATE__

  mass * 1.0  # do not matter since we don't run MD

  pair_style       __PAIR_STYLE__
  pair_coeff       * * __POTENTIALS__ __ELEMENT__

  timestep         0.002

  thermo          1
  fix 1 all nve
  thermo_style    custom step tpcpu pe ke vol press temp
  dump            mydump all custom 1 force.dump id type element x y z fx fy fz
  dump_modify    mydump sort id element __ELEMENT__

  run 0
