generated from poscar module            
   1.00000000000000     
    10.1297863108830004    0.0000000000000000    0.0000000000000000
     1.7303548389159999    0.0000000000000000  -10.3711189427679997
     0.0000000000000000   10.2631432954750004    0.0000000000000000
   Hf   O 
    32    64
Selective dynamics
Direct
  0.8510335777323821  0.8424862586971678  0.7271984203893193   T   T   T
  0.8720065312356420  0.3491509230078507  0.2355593748650577   T   T   T
  0.8673055004290765  0.0980205125368636  0.0293632953845224   T   T   T
  0.8465980071411777  0.8558683756828764  0.2289833377132661   T   T   T
  0.8593234568984808  0.6077498113995028  0.0178338125382777   T   T   T
  0.8624523754639053  0.1028573461986951  0.5399903171707251   T   T   T
  0.8633503630371130  0.6040722849978400  0.5087175565177215   T   T   T
  0.3732494668636492  0.3681266266454131  0.2333868264399502   T   T   T
  0.1466868114147848  0.3968355739264305  0.4859282862980810   T   T   T
  0.1392575061747091  0.1465195408004952  0.2838568488970674   T   T   T
  0.3635779632151532  0.8620703297603843  0.2285517050153333   T   T   T
  0.1279883456233076  0.8985776661604513  0.4841720697189109   T   T   T
  0.3533689560990974  0.8579577360183914  0.7152594969060071   T   T   T
  0.1291086925531890  0.6495056919121228  0.7698292996982269   T   T   T
  0.3688891692044667  0.6107491179856609  0.5168691500820903   T   T   T
  0.3712372786911032  0.3584729619977606  0.7312718469594862   T   T   T
  0.1449152759465913  0.4042173968946327  0.9889620098156414   T   T   T
  0.1451943082896301  0.1483012533260171  0.7909287397039048   T   T   T
  0.3579504295856417  0.1087254698075301  0.5225895466546154   T   T   T
  0.1344647121905668  0.8952771782661789  0.9796933789155942   T   T   T
  0.1285168974689505  0.6549173508442880  0.2769842778864917   T   T   T
  0.3531629815537070  0.6130662404510496  0.0063287743796363   T   T   T
  0.3716843052100264  0.1176277271706075  0.0303505848653806   T   T   T
  0.6324195649791580  0.8976079236175130  0.9742384800747982   T   T   T
  0.6441665355694590  0.3954488304775068  0.9809475137524082   T   T   T
  0.6338519163315420  0.8977049645189014  0.4760378875266972   T   T   T
  0.6288304525228847  0.6432236335859819  0.2644583196747782   T   T   T
  0.6456993406877014  0.3945710983075458  0.4785584460848653   T   T   T
  0.6435987021606785  0.1453949817315690  0.2748745330695996   T   T   T
  0.6403975220394693  0.6434011501725081  0.7693038975613343   T   T   T
  0.8680838380810738  0.3562929405852422  0.7365867789422642   T   T   T
  0.6438977813737518  0.1451720030103763  0.7776287081455585   T   T   T
  0.9655816677197521  0.1786937044296154  0.6788926734980395   T   T   T
  0.9687893271850652  0.6827985451017239  0.6524324062728493   T   T   T
  0.9562304221606145  0.9265528938241981  0.5893947473332263   T   T   T
  0.9503518678874899  0.6710565175157586  0.1706909042423155   T   T   T
  0.7806672564595638  0.2383147986451128  0.3817837950902761   T   T   T
  0.9669890843023415  0.1599197219675487  0.1823639334920047   T   T   T
  0.9633513287293045  0.4196019721127304  0.0818049644718843   T   T   T
  0.7773521754462817  0.9888283804943447  0.3719493626075949   T   T   T
  0.7783806076070795  0.7345259262914945  0.3725791694593396   T   T   T
  0.9585803327621041  0.9088232552701250  0.0873245050862957   T   T   T
  0.9746445924709672  0.4309956972295150  0.5936827116076401   T   T   T
  0.2761104139384202  0.4850442911082729  0.3723195432352479   T   T   T
  0.2760104644569216  0.2454566743771173  0.3859000126642976   T   T   T
  0.4742866141644639  0.1894767903264532  0.1709028896771044   T   T   T
  0.0351754106767269  0.0828753254918476  0.4306235365094504   T   T   T
  0.2751238312999727  0.9888177829326714  0.3846034821052163   T   T   T
  0.2759984028470201  0.7469632382241830  0.3765849094198006   T   T   T
  0.4660904826706941  0.6818685331795944  0.1622604398109223   T   T   T
  0.4647515248930253  0.9371262811933413  0.0913115911760364   T   T   T
  0.4639257541721306  0.4299007619346014  0.0787901726007971   T   T   T
  0.2199349879723898  0.7634766870535530  0.6116430490352446   T   T   T
  0.2294867410974256  0.5142841304824999  0.6233769498969678   T   T   T
  0.2751592060259020  0.7513707802227266  0.8714977024959047   T   T   T
  0.4652838289289070  0.6836060456507951  0.6544911675148325   T   T   T
  0.0221667396848242  0.5773495959689620  0.9079610020263403   T   T   T
  0.4686317182656872  0.9329626207159764  0.5905390467399138   T   T   T
  0.2725539012359323  0.4993525230507719  0.8652006862772158   T   T   T
  0.2309939687775251  0.2606392348763841  0.6339485645570742   T   T   T
  0.2158061217104229  0.0117627860930068  0.6342532750499273   T   T   T
  0.2907677030644340  0.2433061975743181  0.8862744323129476   T   T   T
  0.4678973165137084  0.1785943249861651  0.6699871394727522   T   T   T
  0.0369531523544185  0.0753062904145278  0.9278882405620037   T   T   T
  0.0389512777100600  0.3225849220400179  0.8472588003320319   T   T   T
  0.4655418815079103  0.4315135872941255  0.5849105721352553   T   T   T
  0.2743369526171661  0.9935558874970329  0.8727932889372817   T   T   T
  0.0306747071386560  0.8257245722202899  0.8365423651825669   T   T   T
  0.2262385053299616  0.7695679438468683  0.1143244748409145   T   T   T
  0.2230083295923470  0.5213726084040898  0.1197555715792367   T   T   T
  0.0313601186806889  0.5759036902574165  0.4084664860207189   T   T   T
  0.2309869500006030  0.2650525878986939  0.1239147710196935   T   T   T
  0.2236612466468301  0.0163764273864332  0.1423288421794607   T   T   T
  0.0387786504148878  0.3318722398395938  0.3382354277097824   T   T   T
  0.0325007419990264  0.8238410199205460  0.3346004979244291   T   T   T
  0.7801607508721320  0.9748416750862535  0.8791311173572808   T   T   T
  0.7751307986655084  0.7329096115616626  0.8680318052489697   T   T   T
  0.7230465128597917  0.5158472754949270  0.1341326861296392   T   T   T
  0.5368509757021488  0.5736695117418432  0.4131475010517302   T   T   T
  0.7760193369404657  0.4817722982827295  0.3788426064462908   T   T   T
  0.7422394825661115  0.2598358855031110  0.1174929365744753   T   T   T
  0.7212262145714869  0.0157610403112498  0.1329583305554534   T   T   T
  0.5372747628319164  0.0784982069212175  0.4173675471829557   T   T   T
  0.5482193916090472  0.3330845644330384  0.3268998092518239   T   T   T
  0.7142327711394665  0.7615706845728872  0.1123148821594505   T   T   T
  0.5341726629774866  0.8260863733155724  0.3367409069924293   T   T   T
  0.7222719286623934  0.0078368889287237  0.6367535340198472   T   T   T
  0.5347060725934911  0.0817745751265627  0.9152032828504810   T   T   T
  0.7174200447303549  0.7589194618847239  0.6129201824792476   T   T   T
  0.7317362498261072  0.5034523191630356  0.6310268384713348   T   T   T
  0.5340914227850537  0.5843004232584090  0.9136147374717218   T   T   T
  0.5335266356668480  0.8220765723096696  0.8261143043570970   T   T   T
  0.7738651300709076  0.4909789735699832  0.8763659938428650   T   T   T
  0.7302821991447530  0.2605353736308902  0.6260176283454953   T   T   T
  0.7746235721333091  0.2376383760796416  0.8782029813722951   T   T   T
  0.5443198616045166  0.3321679213985349  0.8351127998397747   T   T   T
 
  0.86030575E-03 -0.49966523E-03 -0.85562865E-03
  0.11564652E-02 -0.19849444E-02 -0.17622144E-02
  0.14738556E-02  0.19263270E-03  0.12702733E-03
  0.27258836E-03 -0.25936655E-02 -0.30367016E-03
  0.15574034E-03 -0.10504755E-02  0.17909942E-02
 -0.11378543E-02 -0.21697280E-02 -0.61756192E-03
 -0.70357978E-05  0.36776023E-03  0.29383708E-03
  0.15527876E-02  0.29672866E-02 -0.30630238E-03
 -0.95765031E-04 -0.11723517E-02  0.68866522E-03
 -0.27790719E-03  0.11975750E-02 -0.13702683E-02
 -0.24575213E-02  0.29237574E-03  0.27972841E-02
 -0.10456950E-02 -0.18143653E-02  0.81660381E-05
 -0.18954025E-03  0.15071312E-02 -0.19076696E-03
  0.20688940E-03  0.21975811E-03 -0.15441642E-02
 -0.99891467E-03 -0.95946050E-03 -0.71555957E-04
 -0.87409578E-03 -0.41710890E-03  0.10366299E-02
  0.74147068E-03 -0.56483364E-03  0.16781580E-02
  0.14320409E-03 -0.13595779E-02 -0.17594864E-02
  0.43684146E-03  0.73545362E-03  0.54928516E-03
  0.29192524E-02 -0.31026708E-02 -0.32723766E-03
  0.53548729E-03  0.28240096E-03 -0.11458641E-02
 -0.43347312E-03  0.65825517E-03  0.45966683E-03
 -0.18587776E-02  0.19621273E-02 -0.12574645E-02
 -0.22958955E-02  0.20606304E-02  0.62138159E-03
 -0.13026169E-03 -0.31407503E-03  0.47904565E-03
  0.15939924E-02  0.84790263E-03 -0.11036275E-02
  0.63133120E-03 -0.77588348E-04  0.65501395E-04
  0.26146188E-02  0.92729713E-03  0.22316461E-04
  0.45219124E-03  0.84523007E-03 -0.33245818E-03
 -0.19543120E-02  0.18532125E-02 -0.11884376E-02
 -0.15193840E-02 -0.77844607E-03 -0.46571696E-03
 -0.64152694E-03  0.43011778E-02  0.29157582E-03
  0.14079724E-03  0.74351635E-03 -0.36720457E-02
 -0.29129927E-02 -0.28799986E-02 -0.13788497E-02
  0.18423008E-02 -0.54428328E-02  0.40733199E-02
  0.11928590E-02  0.29401664E-02  0.15497367E-02
  0.48086575E-02 -0.31816599E-02  0.71463816E-02
 -0.50359245E-02 -0.19767182E-02 -0.38604681E-02
 -0.21552940E-02  0.42183028E-02 -0.24309171E-02
  0.17281471E-02 -0.96174696E-02 -0.17502844E-02
  0.10351596E-02  0.31796256E-02 -0.46964377E-02
  0.15051904E-02 -0.34361625E-02 -0.31238387E-02
 -0.57542312E-02  0.20473259E-02 -0.46097765E-03
  0.44472765E-02  0.42167300E-02 -0.17665455E-02
 -0.86896873E-03 -0.28873774E-02 -0.15392790E-02
 -0.31975034E-02 -0.59556577E-02  0.60950331E-02
  0.76132497E-05 -0.47382226E-02 -0.27721321E-02
  0.33864023E-03 -0.41749881E-02 -0.84831020E-03
 -0.60866113E-02 -0.58103859E-04  0.21608168E-02
 -0.69888536E-03 -0.27951964E-03  0.19489333E-02
  0.36719627E-02  0.17605788E-05 -0.21259454E-02
  0.75601508E-02  0.26676320E-03 -0.37754269E-03
  0.40541839E-03  0.15031974E-02 -0.20002653E-04
  0.19554461E-02 -0.22035945E-02  0.19929304E-02
  0.16010886E-05  0.50740896E-03  0.85897547E-02
  0.50630083E-02 -0.45295876E-02 -0.28641579E-02
 -0.19234431E-02 -0.12838307E-02 -0.30646901E-02
  0.56257615E-02 -0.23869479E-02  0.35221111E-02
 -0.23086757E-02 -0.24187768E-02 -0.57592368E-03
 -0.12371770E-02  0.42708659E-03 -0.36752220E-02
  0.23842288E-02  0.50690901E-02  0.22052854E-02
 -0.16016237E-02  0.38526148E-02 -0.47936385E-04
  0.82564985E-03 -0.19463872E-02 -0.26549335E-02
  0.18184717E-02  0.17390828E-02  0.64993813E-02
 -0.14585338E-02 -0.20853299E-02  0.45403447E-02
  0.14749112E-02 -0.10086304E-03  0.29899711E-02
 -0.26155792E-02  0.80973671E-03  0.36244541E-02
 -0.37099314E-02 -0.18814679E-03 -0.22136583E-02
 -0.15291519E-02 -0.37191165E-02  0.29388330E-02
  0.26466836E-02 -0.90695208E-03 -0.13796189E-03
  0.50407748E-02 -0.91313766E-03  0.30177968E-02
 -0.12787499E-02  0.10989926E-02  0.26424395E-02
  0.12753038E-02  0.55915788E-02 -0.14287686E-02
  0.25871597E-02 -0.27904071E-02  0.19452541E-02
 -0.23536556E-02  0.80996939E-02 -0.42283000E-02
 -0.25804678E-02  0.32886399E-02 -0.51010101E-02
 -0.16248335E-02 -0.55801217E-02 -0.31652726E-02
 -0.27540334E-03  0.48534305E-02  0.27883849E-02
  0.30546860E-02  0.79161522E-02 -0.12323949E-02
  0.53505049E-02 -0.32491196E-02 -0.78268847E-03
  0.24980861E-02  0.12261645E-02  0.38348087E-02
 -0.26711441E-02  0.12148170E-02 -0.13441158E-02
 -0.12649102E-02 -0.27765193E-02 -0.95820913E-03
 -0.26120201E-02 -0.42192189E-02  0.15923769E-02
 -0.19641395E-02  0.56712924E-02  0.57394932E-02
 -0.38794131E-02  0.18689186E-02 -0.28150078E-02
 -0.70890051E-02 -0.34807686E-03 -0.26687922E-02
  0.50337188E-02 -0.10161247E-02  0.55206924E-02
  0.11677454E-01  0.29209855E-02 -0.26232236E-02
 -0.32852564E-02  0.76170191E-02 -0.81820762E-03
 -0.84253737E-02 -0.10379925E-02  0.64337120E-02
 -0.52095547E-02 -0.40900771E-02 -0.64813507E-03
  0.24502516E-02  0.59320980E-02 -0.14163938E-02
 -0.29286915E-02 -0.62543050E-03 -0.98694926E-03
 -0.41537870E-03  0.52171377E-02  0.79180850E-02
  0.12943916E-02 -0.14727873E-02  0.24885444E-03
 
           1
   2.00000000000000     
 -0.52235898E+00  0.22561924E-01  0.23067582E-01 -0.54517373E+00
  0.85117525E+00  0.84265126E+00  0.72710105E+00
  0.87217681E+00  0.34949075E+00  0.23517256E+00
  0.86760068E+00  0.97996016E-01  0.29400834E-01
  0.84664182E+00  0.85592694E+00  0.22847790E+00
  0.85941320E+00  0.60740443E+00  0.17629104E-01
  0.86220738E+00  0.10297644E+00  0.53956750E+00
  0.86335865E+00  0.60401562E+00  0.50878922E+00
  0.37354596E+00  0.36818569E+00  0.23396507E+00
  0.14669059E+00  0.39670277E+00  0.48569983E+00
  0.13915750E+00  0.14678379E+00  0.28409022E+00
  0.36318490E+00  0.86153089E+00  0.22860868E+00
  0.12778216E+00  0.89857609E+00  0.48381850E+00
  0.35332525E+00  0.85799452E+00  0.71555319E+00
  0.12909867E+00  0.64980347E+00  0.76987212E+00
  0.36868959E+00  0.61076292E+00  0.51668218E+00
  0.37109885E+00  0.35827305E+00  0.73119056E+00
  0.14511695E+00  0.40389378E+00  0.98885194E+00
  0.14516462E+00  0.14864056E+00  0.79066380E+00
  0.35805477E+00  0.10861954E+00  0.52273287E+00
  0.13503030E+00  0.89534028E+00  0.97908876E+00
  0.12858488E+00  0.65513832E+00  0.27703931E+00
  0.35309254E+00  0.61297760E+00  0.64570499E-02
  0.37127589E+00  0.11787022E+00  0.30732949E-01
  0.63198674E+00  0.89748809E+00  0.97464004E+00
  0.64415660E+00  0.39535645E+00  0.98088631E+00
  0.63413028E+00  0.89791779E+00  0.47620312E+00
  0.62895726E+00  0.64321100E+00  0.26444320E+00
  0.64621630E+00  0.39456679E+00  0.47873915E+00
  0.64367703E+00  0.14545909E+00  0.27503924E+00
  0.63997252E+00  0.64363033E+00  0.76966504E+00
  0.86776851E+00  0.35638275E+00  0.73643508E+00
  0.64378072E+00  0.14511577E+00  0.77846689E+00
  0.96548850E+00  0.17940183E+00  0.67903756E+00
  0.96816877E+00  0.68306445E+00  0.65187117E+00
  0.95672834E+00  0.92576738E+00  0.58833409E+00
  0.95063843E+00  0.67075766E+00  0.17126386E+00
  0.78185208E+00  0.23693667E+00  0.38116378E+00
  0.96586764E+00  0.16066419E+00  0.18197873E+00
  0.96284572E+00  0.42007076E+00  0.82626994E-01
  0.77763572E+00  0.98916591E+00  0.37007519E+00
  0.77843028E+00  0.73543160E+00  0.37319879E+00
  0.95877461E+00  0.90942567E+00  0.86654893E-01
  0.97349331E+00  0.43108459E+00  0.59408168E+00
  0.27693028E+00  0.48538496E+00  0.37314127E+00
  0.27578819E+00  0.24575351E+00  0.38533734E+00
  0.47385608E+00  0.18830140E+00  0.16974230E+00
  0.35085596E-01  0.83409912E-01  0.42970019E+00
  0.27516275E+00  0.98898137E+00  0.38378989E+00
  0.27486786E+00  0.74654654E+00  0.37657359E+00
  0.46601670E+00  0.68149269E+00  0.16220597E+00
  0.46540648E+00  0.93753626E+00  0.91311934E-01
  0.46540597E+00  0.42997357E+00  0.78842157E-01
  0.22001437E+00  0.76348054E+00  0.61193598E+00
  0.22993847E+00  0.51389981E+00  0.62294753E+00
  0.27544248E+00  0.74971430E+00  0.87159658E+00
  0.46618911E+00  0.68415838E+00  0.65360848E+00
  0.21686025E-01  0.57794060E+00  0.90771082E+00
  0.46985848E+00  0.93228341E+00  0.59007390E+00
  0.27207911E+00  0.49946359E+00  0.86472933E+00
  0.23062864E+00  0.26134798E+00  0.63403179E+00
  0.21634950E+00  0.11337512E-01  0.63524110E+00
  0.29044990E+00  0.24331544E+00  0.88702520E+00
  0.46797287E+00  0.17910631E+00  0.66960784E+00
  0.37526284E-01  0.74052929E-01  0.92822714E+00
  0.38812873E-01  0.32170935E+00  0.84685243E+00
  0.46593158E+00  0.43093699E+00  0.58489092E+00
  0.27393993E+00  0.99285694E+00  0.87295108E+00
  0.29869307E-01  0.82615146E+00  0.83650570E+00
  0.22603340E+00  0.76900121E+00  0.11359972E+00
  0.22352634E+00  0.52139921E+00  0.11957883E+00
  0.32454767E-01  0.57532173E+00  0.40828854E+00
  0.23082152E+00  0.26454301E+00  0.12412893E+00
  0.22386597E+00  0.16651956E-01  0.14341848E+00
  0.39353532E-01  0.33149711E+00  0.33769166E+00
  0.31896757E-01  0.82465642E+00  0.33617890E+00
  0.77948324E+00  0.97582537E+00  0.87977198E+00
  0.77470573E+00  0.73352001E+00  0.86694440E+00
  0.72308399E+00  0.51530955E+00  0.13507848E+00
  0.53741349E+00  0.57390717E+00  0.41469014E+00
  0.77704994E+00  0.48192323E+00  0.37820944E+00
  0.74285902E+00  0.25909637E+00  0.11773188E+00
  0.72065455E+00  0.16020244E-01  0.13319506E+00
  0.53699346E+00  0.78682991E-01  0.41682648E+00
  0.54775614E+00  0.33277749E+00  0.32607760E+00
  0.71403404E+00  0.76046386E+00  0.11342006E+00
  0.53331399E+00  0.82662923E+00  0.33710511E+00
  0.72078438E+00  0.83515474E-02  0.63668570E+00
  0.53588178E+00  0.80709947E-01  0.91500527E+00
  0.71963920E+00  0.75942533E+00  0.61348940E+00
  0.73106066E+00  0.50361010E+00  0.63251118E+00
  0.53263987E+00  0.58305973E+00  0.91341246E+00
  0.53247672E+00  0.82220156E+00  0.82531726E+00
  0.77430224E+00  0.49125212E+00  0.87752199E+00
  0.72967145E+00  0.26072570E+00  0.62589575E+00
  0.77480239E+00  0.23611143E+00  0.87921966E+00
  0.54458362E+00  0.33211993E+00  0.83482579E+00
  0.00000000E+00  0.00000000E+00  0.00000000E+00
  0.00000000E+00  0.00000000E+00  0.00000000E+00
  0.00000000E+00  0.00000000E+00  0.00000000E+00
  0.00000000E+00  0.00000000E+00  0.00000000E+00
  0.00000000E+00  0.00000000E+00  0.00000000E+00
  0.00000000E+00  0.00000000E+00  0.00000000E+00
  0.00000000E+00  0.00000000E+00  0.00000000E+00
  0.00000000E+00  0.00000000E+00  0.00000000E+00
  0.00000000E+00  0.00000000E+00  0.00000000E+00
  0.00000000E+00  0.00000000E+00  0.00000000E+00
  0.00000000E+00  0.00000000E+00  0.00000000E+00
  0.00000000E+00  0.00000000E+00  0.00000000E+00
  0.00000000E+00  0.00000000E+00  0.00000000E+00
  0.00000000E+00  0.00000000E+00  0.00000000E+00
  0.00000000E+00  0.00000000E+00  0.00000000E+00
  0.00000000E+00  0.00000000E+00  0.00000000E+00
  0.00000000E+00  0.00000000E+00  0.00000000E+00
  0.00000000E+00  0.00000000E+00  0.00000000E+00
  0.00000000E+00  0.00000000E+00  0.00000000E+00
  0.00000000E+00  0.00000000E+00  0.00000000E+00
  0.00000000E+00  0.00000000E+00  0.00000000E+00
  0.00000000E+00  0.00000000E+00  0.00000000E+00
  0.00000000E+00  0.00000000E+00  0.00000000E+00
  0.00000000E+00  0.00000000E+00  0.00000000E+00
  0.00000000E+00  0.00000000E+00  0.00000000E+00
  0.00000000E+00  0.00000000E+00  0.00000000E+00
  0.00000000E+00  0.00000000E+00  0.00000000E+00
  0.00000000E+00  0.00000000E+00  0.00000000E+00
  0.00000000E+00  0.00000000E+00  0.00000000E+00
  0.00000000E+00  0.00000000E+00  0.00000000E+00
  0.00000000E+00  0.00000000E+00  0.00000000E+00
  0.00000000E+00  0.00000000E+00  0.00000000E+00
  0.00000000E+00  0.00000000E+00  0.00000000E+00
  0.00000000E+00  0.00000000E+00  0.00000000E+00
  0.00000000E+00  0.00000000E+00  0.00000000E+00
  0.00000000E+00  0.00000000E+00  0.00000000E+00
  0.00000000E+00  0.00000000E+00  0.00000000E+00
  0.00000000E+00  0.00000000E+00  0.00000000E+00
  0.00000000E+00  0.00000000E+00  0.00000000E+00
  0.00000000E+00  0.00000000E+00  0.00000000E+00
  0.00000000E+00  0.00000000E+00  0.00000000E+00
  0.00000000E+00  0.00000000E+00  0.00000000E+00
  0.00000000E+00  0.00000000E+00  0.00000000E+00
  0.00000000E+00  0.00000000E+00  0.00000000E+00
  0.00000000E+00  0.00000000E+00  0.00000000E+00
  0.00000000E+00  0.00000000E+00  0.00000000E+00
  0.00000000E+00  0.00000000E+00  0.00000000E+00
  0.00000000E+00  0.00000000E+00  0.00000000E+00
  0.00000000E+00  0.00000000E+00  0.00000000E+00
  0.00000000E+00  0.00000000E+00  0.00000000E+00
  0.00000000E+00  0.00000000E+00  0.00000000E+00
  0.00000000E+00  0.00000000E+00  0.00000000E+00
  0.00000000E+00  0.00000000E+00  0.00000000E+00
  0.00000000E+00  0.00000000E+00  0.00000000E+00
  0.00000000E+00  0.00000000E+00  0.00000000E+00
  0.00000000E+00  0.00000000E+00  0.00000000E+00
  0.00000000E+00  0.00000000E+00  0.00000000E+00
  0.00000000E+00  0.00000000E+00  0.00000000E+00
  0.00000000E+00  0.00000000E+00  0.00000000E+00
  0.00000000E+00  0.00000000E+00  0.00000000E+00
  0.00000000E+00  0.00000000E+00  0.00000000E+00
  0.00000000E+00  0.00000000E+00  0.00000000E+00
  0.00000000E+00  0.00000000E+00  0.00000000E+00
  0.00000000E+00  0.00000000E+00  0.00000000E+00
  0.00000000E+00  0.00000000E+00  0.00000000E+00
  0.00000000E+00  0.00000000E+00  0.00000000E+00
  0.00000000E+00  0.00000000E+00  0.00000000E+00
  0.00000000E+00  0.00000000E+00  0.00000000E+00
  0.00000000E+00  0.00000000E+00  0.00000000E+00
  0.00000000E+00  0.00000000E+00  0.00000000E+00
  0.00000000E+00  0.00000000E+00  0.00000000E+00
  0.00000000E+00  0.00000000E+00  0.00000000E+00
  0.00000000E+00  0.00000000E+00  0.00000000E+00
  0.00000000E+00  0.00000000E+00  0.00000000E+00
  0.00000000E+00  0.00000000E+00  0.00000000E+00
  0.00000000E+00  0.00000000E+00  0.00000000E+00
  0.00000000E+00  0.00000000E+00  0.00000000E+00
  0.00000000E+00  0.00000000E+00  0.00000000E+00
  0.00000000E+00  0.00000000E+00  0.00000000E+00
  0.00000000E+00  0.00000000E+00  0.00000000E+00
  0.00000000E+00  0.00000000E+00  0.00000000E+00
  0.00000000E+00  0.00000000E+00  0.00000000E+00
  0.00000000E+00  0.00000000E+00  0.00000000E+00
  0.00000000E+00  0.00000000E+00  0.00000000E+00
  0.00000000E+00  0.00000000E+00  0.00000000E+00
  0.00000000E+00  0.00000000E+00  0.00000000E+00
  0.00000000E+00  0.00000000E+00  0.00000000E+00
  0.00000000E+00  0.00000000E+00  0.00000000E+00
  0.00000000E+00  0.00000000E+00  0.00000000E+00
  0.00000000E+00  0.00000000E+00  0.00000000E+00
  0.00000000E+00  0.00000000E+00  0.00000000E+00
  0.00000000E+00  0.00000000E+00  0.00000000E+00
  0.00000000E+00  0.00000000E+00  0.00000000E+00
  0.00000000E+00  0.00000000E+00  0.00000000E+00
  0.00000000E+00  0.00000000E+00  0.00000000E+00
  0.00000000E+00  0.00000000E+00  0.00000000E+00
  0.00000000E+00  0.00000000E+00  0.00000000E+00
  0.00000000E+00  0.00000000E+00  0.00000000E+00
  0.00000000E+00  0.00000000E+00  0.00000000E+00
  0.00000000E+00  0.00000000E+00  0.00000000E+00
  0.00000000E+00  0.00000000E+00  0.00000000E+00
  0.00000000E+00  0.00000000E+00  0.00000000E+00
  0.00000000E+00  0.00000000E+00  0.00000000E+00
  0.00000000E+00  0.00000000E+00  0.00000000E+00
  0.00000000E+00  0.00000000E+00  0.00000000E+00
  0.00000000E+00  0.00000000E+00  0.00000000E+00
  0.00000000E+00  0.00000000E+00  0.00000000E+00
  0.00000000E+00  0.00000000E+00  0.00000000E+00
  0.00000000E+00  0.00000000E+00  0.00000000E+00
  0.00000000E+00  0.00000000E+00  0.00000000E+00
  0.00000000E+00  0.00000000E+00  0.00000000E+00
  0.00000000E+00  0.00000000E+00  0.00000000E+00
  0.00000000E+00  0.00000000E+00  0.00000000E+00
  0.00000000E+00  0.00000000E+00  0.00000000E+00
  0.00000000E+00  0.00000000E+00  0.00000000E+00
  0.00000000E+00  0.00000000E+00  0.00000000E+00
  0.00000000E+00  0.00000000E+00  0.00000000E+00
  0.00000000E+00  0.00000000E+00  0.00000000E+00
  0.00000000E+00  0.00000000E+00  0.00000000E+00
  0.00000000E+00  0.00000000E+00  0.00000000E+00
  0.00000000E+00  0.00000000E+00  0.00000000E+00
  0.00000000E+00  0.00000000E+00  0.00000000E+00
  0.00000000E+00  0.00000000E+00  0.00000000E+00
  0.00000000E+00  0.00000000E+00  0.00000000E+00
  0.00000000E+00  0.00000000E+00  0.00000000E+00
  0.00000000E+00  0.00000000E+00  0.00000000E+00
  0.00000000E+00  0.00000000E+00  0.00000000E+00
  0.00000000E+00  0.00000000E+00  0.00000000E+00
  0.00000000E+00  0.00000000E+00  0.00000000E+00
  0.00000000E+00  0.00000000E+00  0.00000000E+00
  0.00000000E+00  0.00000000E+00  0.00000000E+00
  0.00000000E+00  0.00000000E+00  0.00000000E+00
  0.00000000E+00  0.00000000E+00  0.00000000E+00
  0.00000000E+00  0.00000000E+00  0.00000000E+00
  0.00000000E+00  0.00000000E+00  0.00000000E+00
  0.00000000E+00  0.00000000E+00  0.00000000E+00
  0.00000000E+00  0.00000000E+00  0.00000000E+00
  0.00000000E+00  0.00000000E+00  0.00000000E+00
  0.00000000E+00  0.00000000E+00  0.00000000E+00
  0.00000000E+00  0.00000000E+00  0.00000000E+00
  0.00000000E+00  0.00000000E+00  0.00000000E+00
  0.00000000E+00  0.00000000E+00  0.00000000E+00
  0.00000000E+00  0.00000000E+00  0.00000000E+00
  0.00000000E+00  0.00000000E+00  0.00000000E+00
  0.00000000E+00  0.00000000E+00  0.00000000E+00
  0.00000000E+00  0.00000000E+00  0.00000000E+00
  0.00000000E+00  0.00000000E+00  0.00000000E+00
  0.00000000E+00  0.00000000E+00  0.00000000E+00
  0.00000000E+00  0.00000000E+00  0.00000000E+00
  0.00000000E+00  0.00000000E+00  0.00000000E+00
  0.00000000E+00  0.00000000E+00  0.00000000E+00
  0.00000000E+00  0.00000000E+00  0.00000000E+00
  0.00000000E+00  0.00000000E+00  0.00000000E+00
  0.00000000E+00  0.00000000E+00  0.00000000E+00
  0.00000000E+00  0.00000000E+00  0.00000000E+00
  0.00000000E+00  0.00000000E+00  0.00000000E+00
  0.00000000E+00  0.00000000E+00  0.00000000E+00
  0.00000000E+00  0.00000000E+00  0.00000000E+00
  0.00000000E+00  0.00000000E+00  0.00000000E+00
  0.00000000E+00  0.00000000E+00  0.00000000E+00
  0.00000000E+00  0.00000000E+00  0.00000000E+00
  0.00000000E+00  0.00000000E+00  0.00000000E+00
  0.00000000E+00  0.00000000E+00  0.00000000E+00
  0.00000000E+00  0.00000000E+00  0.00000000E+00
  0.00000000E+00  0.00000000E+00  0.00000000E+00
  0.00000000E+00  0.00000000E+00  0.00000000E+00
  0.00000000E+00  0.00000000E+00  0.00000000E+00
  0.00000000E+00  0.00000000E+00  0.00000000E+00
  0.00000000E+00  0.00000000E+00  0.00000000E+00
  0.00000000E+00  0.00000000E+00  0.00000000E+00
  0.00000000E+00  0.00000000E+00  0.00000000E+00
  0.00000000E+00  0.00000000E+00  0.00000000E+00
  0.00000000E+00  0.00000000E+00  0.00000000E+00
  0.00000000E+00  0.00000000E+00  0.00000000E+00
  0.00000000E+00  0.00000000E+00  0.00000000E+00
  0.00000000E+00  0.00000000E+00  0.00000000E+00
  0.00000000E+00  0.00000000E+00  0.00000000E+00
  0.00000000E+00  0.00000000E+00  0.00000000E+00
  0.00000000E+00  0.00000000E+00  0.00000000E+00
  0.00000000E+00  0.00000000E+00  0.00000000E+00
  0.00000000E+00  0.00000000E+00  0.00000000E+00
  0.00000000E+00  0.00000000E+00  0.00000000E+00
  0.00000000E+00  0.00000000E+00  0.00000000E+00
  0.00000000E+00  0.00000000E+00  0.00000000E+00
  0.00000000E+00  0.00000000E+00  0.00000000E+00
  0.00000000E+00  0.00000000E+00  0.00000000E+00
  0.00000000E+00  0.00000000E+00  0.00000000E+00
  0.00000000E+00  0.00000000E+00  0.00000000E+00
  0.00000000E+00  0.00000000E+00  0.00000000E+00
  0.00000000E+00  0.00000000E+00  0.00000000E+00
  0.00000000E+00  0.00000000E+00  0.00000000E+00
  0.00000000E+00  0.00000000E+00  0.00000000E+00
